c *********************************
c * Circuit generated by BenCGen
c *
c * CarrySelectAdder_56_56_56_InOut_G4T
c *
c * Ports with 1 gate(s): 94
c * Ports with 2 gate(s): 762
c * Ports with 4 gate(s): 26
c * Total gates: 882
c *********************************
p cnf 994 2820
1 171 0
-1 -171 0
1 -170 0
171 -170 0
-1 -171 170 0
170 188 0
-170 -188 0
1 57 -174 0
-1 57 174 0
1 -57 174 0
-1 -57 -174 0
174 170 -113 0
-174 170 113 0
174 -170 113 0
-174 -170 -113 0
170 -175 0
174 -175 0
-170 -174 175 0
57 -176 0
1 -176 0
-57 -1 176 0
-175 173 0
-176 173 0
175 176 -173 0
2 58 -178 0
-2 58 178 0
2 -58 178 0
-2 -58 -178 0
178 173 -114 0
-178 173 114 0
178 -173 114 0
-178 -173 -114 0
173 -179 0
178 -179 0
-173 -178 179 0
58 -180 0
2 -180 0
-58 -2 180 0
-179 177 0
-180 177 0
179 180 -177 0
3 59 -182 0
-3 59 182 0
3 -59 182 0
-3 -59 -182 0
182 177 -115 0
-182 177 115 0
182 -177 115 0
-182 -177 -115 0
177 -183 0
182 -183 0
-177 -182 183 0
59 -184 0
3 -184 0
-59 -3 184 0
-183 181 0
-184 181 0
183 184 -181 0
4 60 -185 0
-4 60 185 0
4 -60 185 0
-4 -60 -185 0
185 181 -116 0
-185 181 116 0
185 -181 116 0
-185 -181 -116 0
181 -186 0
185 -186 0
-181 -185 186 0
60 -187 0
4 -187 0
-60 -4 187 0
-186 172 0
-187 172 0
186 187 -172 0
5 61 -199 0
-5 61 199 0
5 -61 199 0
-5 -61 -199 0
199 170 -189 0
-199 170 189 0
199 -170 189 0
-199 -170 -189 0
170 -200 0
199 -200 0
-170 -199 200 0
61 -201 0
5 -201 0
-61 -5 201 0
-200 198 0
-201 198 0
200 201 -198 0
6 62 -203 0
-6 62 203 0
6 -62 203 0
-6 -62 -203 0
203 198 -190 0
-203 198 190 0
203 -198 190 0
-203 -198 -190 0
198 -204 0
203 -204 0
-198 -203 204 0
62 -205 0
6 -205 0
-62 -6 205 0
-204 202 0
-205 202 0
204 205 -202 0
7 63 -207 0
-7 63 207 0
7 -63 207 0
-7 -63 -207 0
207 202 -191 0
-207 202 191 0
207 -202 191 0
-207 -202 -191 0
202 -208 0
207 -208 0
-202 -207 208 0
63 -209 0
7 -209 0
-63 -7 209 0
-208 206 0
-209 206 0
208 209 -206 0
8 64 -210 0
-8 64 210 0
8 -64 210 0
-8 -64 -210 0
210 206 -192 0
-210 206 192 0
210 -206 192 0
-210 -206 -192 0
206 -211 0
210 -211 0
-206 -210 211 0
64 -212 0
8 -212 0
-64 -8 212 0
-211 197 0
-212 197 0
211 212 -197 0
199 -213 0
203 -213 0
207 -213 0
210 -213 0
-199 -203 -207 -210 213 0
212 -214 0
-212 214 0
5 61 -217 0
-5 61 217 0
5 -61 217 0
-5 -61 -217 0
217 188 -193 0
-217 188 193 0
217 -188 193 0
-217 -188 -193 0
188 -218 0
217 -218 0
-188 -217 218 0
61 -219 0
5 -219 0
-61 -5 219 0
-218 216 0
-219 216 0
218 219 -216 0
6 62 -221 0
-6 62 221 0
6 -62 221 0
-6 -62 -221 0
221 216 -194 0
-221 216 194 0
221 -216 194 0
-221 -216 -194 0
216 -222 0
221 -222 0
-216 -221 222 0
62 -223 0
6 -223 0
-62 -6 223 0
-222 220 0
-223 220 0
222 223 -220 0
7 63 -225 0
-7 63 225 0
7 -63 225 0
-7 -63 -225 0
225 220 -195 0
-225 220 195 0
225 -220 195 0
-225 -220 -195 0
220 -226 0
225 -226 0
-220 -225 226 0
63 -227 0
7 -227 0
-63 -7 227 0
-226 224 0
-227 224 0
226 227 -224 0
8 64 -228 0
-8 64 228 0
8 -64 228 0
-8 -64 -228 0
228 224 -196 0
-228 224 196 0
228 -224 196 0
-228 -224 -196 0
224 -229 0
228 -229 0
-224 -228 229 0
64 -230 0
8 -230 0
-64 -8 230 0
-229 215 0
-230 215 0
229 230 -215 0
217 -231 0
221 -231 0
225 -231 0
228 -231 0
-217 -221 -225 -228 231 0
230 -232 0
-230 232 0
9 65 -261 0
-9 65 261 0
9 -65 261 0
-9 -65 -261 0
261 170 -251 0
-261 170 251 0
261 -170 251 0
-261 -170 -251 0
170 -262 0
261 -262 0
-170 -261 262 0
65 -263 0
9 -263 0
-65 -9 263 0
-262 260 0
-263 260 0
262 263 -260 0
10 66 -265 0
-10 66 265 0
10 -66 265 0
-10 -66 -265 0
265 260 -252 0
-265 260 252 0
265 -260 252 0
-265 -260 -252 0
260 -266 0
265 -266 0
-260 -265 266 0
66 -267 0
10 -267 0
-66 -10 267 0
-266 264 0
-267 264 0
266 267 -264 0
11 67 -269 0
-11 67 269 0
11 -67 269 0
-11 -67 -269 0
269 264 -253 0
-269 264 253 0
269 -264 253 0
-269 -264 -253 0
264 -270 0
269 -270 0
-264 -269 270 0
67 -271 0
11 -271 0
-67 -11 271 0
-270 268 0
-271 268 0
270 271 -268 0
12 68 -272 0
-12 68 272 0
12 -68 272 0
-12 -68 -272 0
272 268 -254 0
-272 268 254 0
272 -268 254 0
-272 -268 -254 0
268 -273 0
272 -273 0
-268 -272 273 0
68 -274 0
12 -274 0
-68 -12 274 0
-273 259 0
-274 259 0
273 274 -259 0
261 -275 0
265 -275 0
269 -275 0
272 -275 0
-261 -265 -269 -272 275 0
274 -276 0
-274 276 0
9 65 -279 0
-9 65 279 0
9 -65 279 0
-9 -65 -279 0
279 188 -255 0
-279 188 255 0
279 -188 255 0
-279 -188 -255 0
188 -280 0
279 -280 0
-188 -279 280 0
65 -281 0
9 -281 0
-65 -9 281 0
-280 278 0
-281 278 0
280 281 -278 0
10 66 -283 0
-10 66 283 0
10 -66 283 0
-10 -66 -283 0
283 278 -256 0
-283 278 256 0
283 -278 256 0
-283 -278 -256 0
278 -284 0
283 -284 0
-278 -283 284 0
66 -285 0
10 -285 0
-66 -10 285 0
-284 282 0
-285 282 0
284 285 -282 0
11 67 -287 0
-11 67 287 0
11 -67 287 0
-11 -67 -287 0
287 282 -257 0
-287 282 257 0
287 -282 257 0
-287 -282 -257 0
282 -288 0
287 -288 0
-282 -287 288 0
67 -289 0
11 -289 0
-67 -11 289 0
-288 286 0
-289 286 0
288 289 -286 0
12 68 -290 0
-12 68 290 0
12 -68 290 0
-12 -68 -290 0
290 286 -258 0
-290 286 258 0
290 -286 258 0
-290 -286 -258 0
286 -291 0
290 -291 0
-286 -290 291 0
68 -292 0
12 -292 0
-68 -12 292 0
-291 277 0
-292 277 0
291 292 -277 0
279 -293 0
283 -293 0
287 -293 0
290 -293 0
-279 -283 -287 -290 293 0
292 -294 0
-292 294 0
13 69 -323 0
-13 69 323 0
13 -69 323 0
-13 -69 -323 0
323 170 -313 0
-323 170 313 0
323 -170 313 0
-323 -170 -313 0
170 -324 0
323 -324 0
-170 -323 324 0
69 -325 0
13 -325 0
-69 -13 325 0
-324 322 0
-325 322 0
324 325 -322 0
14 70 -327 0
-14 70 327 0
14 -70 327 0
-14 -70 -327 0
327 322 -314 0
-327 322 314 0
327 -322 314 0
-327 -322 -314 0
322 -328 0
327 -328 0
-322 -327 328 0
70 -329 0
14 -329 0
-70 -14 329 0
-328 326 0
-329 326 0
328 329 -326 0
15 71 -331 0
-15 71 331 0
15 -71 331 0
-15 -71 -331 0
331 326 -315 0
-331 326 315 0
331 -326 315 0
-331 -326 -315 0
326 -332 0
331 -332 0
-326 -331 332 0
71 -333 0
15 -333 0
-71 -15 333 0
-332 330 0
-333 330 0
332 333 -330 0
16 72 -334 0
-16 72 334 0
16 -72 334 0
-16 -72 -334 0
334 330 -316 0
-334 330 316 0
334 -330 316 0
-334 -330 -316 0
330 -335 0
334 -335 0
-330 -334 335 0
72 -336 0
16 -336 0
-72 -16 336 0
-335 321 0
-336 321 0
335 336 -321 0
323 -337 0
327 -337 0
331 -337 0
334 -337 0
-323 -327 -331 -334 337 0
336 -338 0
-336 338 0
13 69 -341 0
-13 69 341 0
13 -69 341 0
-13 -69 -341 0
341 188 -317 0
-341 188 317 0
341 -188 317 0
-341 -188 -317 0
188 -342 0
341 -342 0
-188 -341 342 0
69 -343 0
13 -343 0
-69 -13 343 0
-342 340 0
-343 340 0
342 343 -340 0
14 70 -345 0
-14 70 345 0
14 -70 345 0
-14 -70 -345 0
345 340 -318 0
-345 340 318 0
345 -340 318 0
-345 -340 -318 0
340 -346 0
345 -346 0
-340 -345 346 0
70 -347 0
14 -347 0
-70 -14 347 0
-346 344 0
-347 344 0
346 347 -344 0
15 71 -349 0
-15 71 349 0
15 -71 349 0
-15 -71 -349 0
349 344 -319 0
-349 344 319 0
349 -344 319 0
-349 -344 -319 0
344 -350 0
349 -350 0
-344 -349 350 0
71 -351 0
15 -351 0
-71 -15 351 0
-350 348 0
-351 348 0
350 351 -348 0
16 72 -352 0
-16 72 352 0
16 -72 352 0
-16 -72 -352 0
352 348 -320 0
-352 348 320 0
352 -348 320 0
-352 -348 -320 0
348 -353 0
352 -353 0
-348 -352 353 0
72 -354 0
16 -354 0
-72 -16 354 0
-353 339 0
-354 339 0
353 354 -339 0
341 -355 0
345 -355 0
349 -355 0
352 -355 0
-341 -345 -349 -352 355 0
354 -356 0
-354 356 0
17 73 -385 0
-17 73 385 0
17 -73 385 0
-17 -73 -385 0
385 170 -375 0
-385 170 375 0
385 -170 375 0
-385 -170 -375 0
170 -386 0
385 -386 0
-170 -385 386 0
73 -387 0
17 -387 0
-73 -17 387 0
-386 384 0
-387 384 0
386 387 -384 0
18 74 -389 0
-18 74 389 0
18 -74 389 0
-18 -74 -389 0
389 384 -376 0
-389 384 376 0
389 -384 376 0
-389 -384 -376 0
384 -390 0
389 -390 0
-384 -389 390 0
74 -391 0
18 -391 0
-74 -18 391 0
-390 388 0
-391 388 0
390 391 -388 0
19 75 -393 0
-19 75 393 0
19 -75 393 0
-19 -75 -393 0
393 388 -377 0
-393 388 377 0
393 -388 377 0
-393 -388 -377 0
388 -394 0
393 -394 0
-388 -393 394 0
75 -395 0
19 -395 0
-75 -19 395 0
-394 392 0
-395 392 0
394 395 -392 0
20 76 -396 0
-20 76 396 0
20 -76 396 0
-20 -76 -396 0
396 392 -378 0
-396 392 378 0
396 -392 378 0
-396 -392 -378 0
392 -397 0
396 -397 0
-392 -396 397 0
76 -398 0
20 -398 0
-76 -20 398 0
-397 383 0
-398 383 0
397 398 -383 0
385 -399 0
389 -399 0
393 -399 0
396 -399 0
-385 -389 -393 -396 399 0
398 -400 0
-398 400 0
17 73 -403 0
-17 73 403 0
17 -73 403 0
-17 -73 -403 0
403 188 -379 0
-403 188 379 0
403 -188 379 0
-403 -188 -379 0
188 -404 0
403 -404 0
-188 -403 404 0
73 -405 0
17 -405 0
-73 -17 405 0
-404 402 0
-405 402 0
404 405 -402 0
18 74 -407 0
-18 74 407 0
18 -74 407 0
-18 -74 -407 0
407 402 -380 0
-407 402 380 0
407 -402 380 0
-407 -402 -380 0
402 -408 0
407 -408 0
-402 -407 408 0
74 -409 0
18 -409 0
-74 -18 409 0
-408 406 0
-409 406 0
408 409 -406 0
19 75 -411 0
-19 75 411 0
19 -75 411 0
-19 -75 -411 0
411 406 -381 0
-411 406 381 0
411 -406 381 0
-411 -406 -381 0
406 -412 0
411 -412 0
-406 -411 412 0
75 -413 0
19 -413 0
-75 -19 413 0
-412 410 0
-413 410 0
412 413 -410 0
20 76 -414 0
-20 76 414 0
20 -76 414 0
-20 -76 -414 0
414 410 -382 0
-414 410 382 0
414 -410 382 0
-414 -410 -382 0
410 -415 0
414 -415 0
-410 -414 415 0
76 -416 0
20 -416 0
-76 -20 416 0
-415 401 0
-416 401 0
415 416 -401 0
403 -417 0
407 -417 0
411 -417 0
414 -417 0
-403 -407 -411 -414 417 0
416 -418 0
-416 418 0
21 77 -447 0
-21 77 447 0
21 -77 447 0
-21 -77 -447 0
447 170 -437 0
-447 170 437 0
447 -170 437 0
-447 -170 -437 0
170 -448 0
447 -448 0
-170 -447 448 0
77 -449 0
21 -449 0
-77 -21 449 0
-448 446 0
-449 446 0
448 449 -446 0
22 78 -451 0
-22 78 451 0
22 -78 451 0
-22 -78 -451 0
451 446 -438 0
-451 446 438 0
451 -446 438 0
-451 -446 -438 0
446 -452 0
451 -452 0
-446 -451 452 0
78 -453 0
22 -453 0
-78 -22 453 0
-452 450 0
-453 450 0
452 453 -450 0
23 79 -455 0
-23 79 455 0
23 -79 455 0
-23 -79 -455 0
455 450 -439 0
-455 450 439 0
455 -450 439 0
-455 -450 -439 0
450 -456 0
455 -456 0
-450 -455 456 0
79 -457 0
23 -457 0
-79 -23 457 0
-456 454 0
-457 454 0
456 457 -454 0
24 80 -458 0
-24 80 458 0
24 -80 458 0
-24 -80 -458 0
458 454 -440 0
-458 454 440 0
458 -454 440 0
-458 -454 -440 0
454 -459 0
458 -459 0
-454 -458 459 0
80 -460 0
24 -460 0
-80 -24 460 0
-459 445 0
-460 445 0
459 460 -445 0
447 -461 0
451 -461 0
455 -461 0
458 -461 0
-447 -451 -455 -458 461 0
460 -462 0
-460 462 0
21 77 -465 0
-21 77 465 0
21 -77 465 0
-21 -77 -465 0
465 188 -441 0
-465 188 441 0
465 -188 441 0
-465 -188 -441 0
188 -466 0
465 -466 0
-188 -465 466 0
77 -467 0
21 -467 0
-77 -21 467 0
-466 464 0
-467 464 0
466 467 -464 0
22 78 -469 0
-22 78 469 0
22 -78 469 0
-22 -78 -469 0
469 464 -442 0
-469 464 442 0
469 -464 442 0
-469 -464 -442 0
464 -470 0
469 -470 0
-464 -469 470 0
78 -471 0
22 -471 0
-78 -22 471 0
-470 468 0
-471 468 0
470 471 -468 0
23 79 -473 0
-23 79 473 0
23 -79 473 0
-23 -79 -473 0
473 468 -443 0
-473 468 443 0
473 -468 443 0
-473 -468 -443 0
468 -474 0
473 -474 0
-468 -473 474 0
79 -475 0
23 -475 0
-79 -23 475 0
-474 472 0
-475 472 0
474 475 -472 0
24 80 -476 0
-24 80 476 0
24 -80 476 0
-24 -80 -476 0
476 472 -444 0
-476 472 444 0
476 -472 444 0
-476 -472 -444 0
472 -477 0
476 -477 0
-472 -476 477 0
80 -478 0
24 -478 0
-80 -24 478 0
-477 463 0
-478 463 0
477 478 -463 0
465 -479 0
469 -479 0
473 -479 0
476 -479 0
-465 -469 -473 -476 479 0
478 -480 0
-478 480 0
25 81 -509 0
-25 81 509 0
25 -81 509 0
-25 -81 -509 0
509 170 -499 0
-509 170 499 0
509 -170 499 0
-509 -170 -499 0
170 -510 0
509 -510 0
-170 -509 510 0
81 -511 0
25 -511 0
-81 -25 511 0
-510 508 0
-511 508 0
510 511 -508 0
26 82 -513 0
-26 82 513 0
26 -82 513 0
-26 -82 -513 0
513 508 -500 0
-513 508 500 0
513 -508 500 0
-513 -508 -500 0
508 -514 0
513 -514 0
-508 -513 514 0
82 -515 0
26 -515 0
-82 -26 515 0
-514 512 0
-515 512 0
514 515 -512 0
27 83 -517 0
-27 83 517 0
27 -83 517 0
-27 -83 -517 0
517 512 -501 0
-517 512 501 0
517 -512 501 0
-517 -512 -501 0
512 -518 0
517 -518 0
-512 -517 518 0
83 -519 0
27 -519 0
-83 -27 519 0
-518 516 0
-519 516 0
518 519 -516 0
28 84 -520 0
-28 84 520 0
28 -84 520 0
-28 -84 -520 0
520 516 -502 0
-520 516 502 0
520 -516 502 0
-520 -516 -502 0
516 -521 0
520 -521 0
-516 -520 521 0
84 -522 0
28 -522 0
-84 -28 522 0
-521 507 0
-522 507 0
521 522 -507 0
509 -523 0
513 -523 0
517 -523 0
520 -523 0
-509 -513 -517 -520 523 0
522 -524 0
-522 524 0
25 81 -527 0
-25 81 527 0
25 -81 527 0
-25 -81 -527 0
527 188 -503 0
-527 188 503 0
527 -188 503 0
-527 -188 -503 0
188 -528 0
527 -528 0
-188 -527 528 0
81 -529 0
25 -529 0
-81 -25 529 0
-528 526 0
-529 526 0
528 529 -526 0
26 82 -531 0
-26 82 531 0
26 -82 531 0
-26 -82 -531 0
531 526 -504 0
-531 526 504 0
531 -526 504 0
-531 -526 -504 0
526 -532 0
531 -532 0
-526 -531 532 0
82 -533 0
26 -533 0
-82 -26 533 0
-532 530 0
-533 530 0
532 533 -530 0
27 83 -535 0
-27 83 535 0
27 -83 535 0
-27 -83 -535 0
535 530 -505 0
-535 530 505 0
535 -530 505 0
-535 -530 -505 0
530 -536 0
535 -536 0
-530 -535 536 0
83 -537 0
27 -537 0
-83 -27 537 0
-536 534 0
-537 534 0
536 537 -534 0
28 84 -538 0
-28 84 538 0
28 -84 538 0
-28 -84 -538 0
538 534 -506 0
-538 534 506 0
538 -534 506 0
-538 -534 -506 0
534 -539 0
538 -539 0
-534 -538 539 0
84 -540 0
28 -540 0
-84 -28 540 0
-539 525 0
-540 525 0
539 540 -525 0
527 -541 0
531 -541 0
535 -541 0
538 -541 0
-527 -531 -535 -538 541 0
540 -542 0
-540 542 0
29 85 -571 0
-29 85 571 0
29 -85 571 0
-29 -85 -571 0
571 170 -561 0
-571 170 561 0
571 -170 561 0
-571 -170 -561 0
170 -572 0
571 -572 0
-170 -571 572 0
85 -573 0
29 -573 0
-85 -29 573 0
-572 570 0
-573 570 0
572 573 -570 0
30 86 -575 0
-30 86 575 0
30 -86 575 0
-30 -86 -575 0
575 570 -562 0
-575 570 562 0
575 -570 562 0
-575 -570 -562 0
570 -576 0
575 -576 0
-570 -575 576 0
86 -577 0
30 -577 0
-86 -30 577 0
-576 574 0
-577 574 0
576 577 -574 0
31 87 -579 0
-31 87 579 0
31 -87 579 0
-31 -87 -579 0
579 574 -563 0
-579 574 563 0
579 -574 563 0
-579 -574 -563 0
574 -580 0
579 -580 0
-574 -579 580 0
87 -581 0
31 -581 0
-87 -31 581 0
-580 578 0
-581 578 0
580 581 -578 0
32 88 -582 0
-32 88 582 0
32 -88 582 0
-32 -88 -582 0
582 578 -564 0
-582 578 564 0
582 -578 564 0
-582 -578 -564 0
578 -583 0
582 -583 0
-578 -582 583 0
88 -584 0
32 -584 0
-88 -32 584 0
-583 569 0
-584 569 0
583 584 -569 0
571 -585 0
575 -585 0
579 -585 0
582 -585 0
-571 -575 -579 -582 585 0
584 -586 0
-584 586 0
29 85 -589 0
-29 85 589 0
29 -85 589 0
-29 -85 -589 0
589 188 -565 0
-589 188 565 0
589 -188 565 0
-589 -188 -565 0
188 -590 0
589 -590 0
-188 -589 590 0
85 -591 0
29 -591 0
-85 -29 591 0
-590 588 0
-591 588 0
590 591 -588 0
30 86 -593 0
-30 86 593 0
30 -86 593 0
-30 -86 -593 0
593 588 -566 0
-593 588 566 0
593 -588 566 0
-593 -588 -566 0
588 -594 0
593 -594 0
-588 -593 594 0
86 -595 0
30 -595 0
-86 -30 595 0
-594 592 0
-595 592 0
594 595 -592 0
31 87 -597 0
-31 87 597 0
31 -87 597 0
-31 -87 -597 0
597 592 -567 0
-597 592 567 0
597 -592 567 0
-597 -592 -567 0
592 -598 0
597 -598 0
-592 -597 598 0
87 -599 0
31 -599 0
-87 -31 599 0
-598 596 0
-599 596 0
598 599 -596 0
32 88 -600 0
-32 88 600 0
32 -88 600 0
-32 -88 -600 0
600 596 -568 0
-600 596 568 0
600 -596 568 0
-600 -596 -568 0
596 -601 0
600 -601 0
-596 -600 601 0
88 -602 0
32 -602 0
-88 -32 602 0
-601 587 0
-602 587 0
601 602 -587 0
589 -603 0
593 -603 0
597 -603 0
600 -603 0
-589 -593 -597 -600 603 0
602 -604 0
-602 604 0
33 89 -633 0
-33 89 633 0
33 -89 633 0
-33 -89 -633 0
633 170 -623 0
-633 170 623 0
633 -170 623 0
-633 -170 -623 0
170 -634 0
633 -634 0
-170 -633 634 0
89 -635 0
33 -635 0
-89 -33 635 0
-634 632 0
-635 632 0
634 635 -632 0
34 90 -637 0
-34 90 637 0
34 -90 637 0
-34 -90 -637 0
637 632 -624 0
-637 632 624 0
637 -632 624 0
-637 -632 -624 0
632 -638 0
637 -638 0
-632 -637 638 0
90 -639 0
34 -639 0
-90 -34 639 0
-638 636 0
-639 636 0
638 639 -636 0
35 91 -641 0
-35 91 641 0
35 -91 641 0
-35 -91 -641 0
641 636 -625 0
-641 636 625 0
641 -636 625 0
-641 -636 -625 0
636 -642 0
641 -642 0
-636 -641 642 0
91 -643 0
35 -643 0
-91 -35 643 0
-642 640 0
-643 640 0
642 643 -640 0
36 92 -644 0
-36 92 644 0
36 -92 644 0
-36 -92 -644 0
644 640 -626 0
-644 640 626 0
644 -640 626 0
-644 -640 -626 0
640 -645 0
644 -645 0
-640 -644 645 0
92 -646 0
36 -646 0
-92 -36 646 0
-645 631 0
-646 631 0
645 646 -631 0
633 -647 0
637 -647 0
641 -647 0
644 -647 0
-633 -637 -641 -644 647 0
646 -648 0
-646 648 0
33 89 -651 0
-33 89 651 0
33 -89 651 0
-33 -89 -651 0
651 188 -627 0
-651 188 627 0
651 -188 627 0
-651 -188 -627 0
188 -652 0
651 -652 0
-188 -651 652 0
89 -653 0
33 -653 0
-89 -33 653 0
-652 650 0
-653 650 0
652 653 -650 0
34 90 -655 0
-34 90 655 0
34 -90 655 0
-34 -90 -655 0
655 650 -628 0
-655 650 628 0
655 -650 628 0
-655 -650 -628 0
650 -656 0
655 -656 0
-650 -655 656 0
90 -657 0
34 -657 0
-90 -34 657 0
-656 654 0
-657 654 0
656 657 -654 0
35 91 -659 0
-35 91 659 0
35 -91 659 0
-35 -91 -659 0
659 654 -629 0
-659 654 629 0
659 -654 629 0
-659 -654 -629 0
654 -660 0
659 -660 0
-654 -659 660 0
91 -661 0
35 -661 0
-91 -35 661 0
-660 658 0
-661 658 0
660 661 -658 0
36 92 -662 0
-36 92 662 0
36 -92 662 0
-36 -92 -662 0
662 658 -630 0
-662 658 630 0
662 -658 630 0
-662 -658 -630 0
658 -663 0
662 -663 0
-658 -662 663 0
92 -664 0
36 -664 0
-92 -36 664 0
-663 649 0
-664 649 0
663 664 -649 0
651 -665 0
655 -665 0
659 -665 0
662 -665 0
-651 -655 -659 -662 665 0
664 -666 0
-664 666 0
37 93 -695 0
-37 93 695 0
37 -93 695 0
-37 -93 -695 0
695 170 -685 0
-695 170 685 0
695 -170 685 0
-695 -170 -685 0
170 -696 0
695 -696 0
-170 -695 696 0
93 -697 0
37 -697 0
-93 -37 697 0
-696 694 0
-697 694 0
696 697 -694 0
38 94 -699 0
-38 94 699 0
38 -94 699 0
-38 -94 -699 0
699 694 -686 0
-699 694 686 0
699 -694 686 0
-699 -694 -686 0
694 -700 0
699 -700 0
-694 -699 700 0
94 -701 0
38 -701 0
-94 -38 701 0
-700 698 0
-701 698 0
700 701 -698 0
39 95 -703 0
-39 95 703 0
39 -95 703 0
-39 -95 -703 0
703 698 -687 0
-703 698 687 0
703 -698 687 0
-703 -698 -687 0
698 -704 0
703 -704 0
-698 -703 704 0
95 -705 0
39 -705 0
-95 -39 705 0
-704 702 0
-705 702 0
704 705 -702 0
40 96 -706 0
-40 96 706 0
40 -96 706 0
-40 -96 -706 0
706 702 -688 0
-706 702 688 0
706 -702 688 0
-706 -702 -688 0
702 -707 0
706 -707 0
-702 -706 707 0
96 -708 0
40 -708 0
-96 -40 708 0
-707 693 0
-708 693 0
707 708 -693 0
695 -709 0
699 -709 0
703 -709 0
706 -709 0
-695 -699 -703 -706 709 0
708 -710 0
-708 710 0
37 93 -713 0
-37 93 713 0
37 -93 713 0
-37 -93 -713 0
713 188 -689 0
-713 188 689 0
713 -188 689 0
-713 -188 -689 0
188 -714 0
713 -714 0
-188 -713 714 0
93 -715 0
37 -715 0
-93 -37 715 0
-714 712 0
-715 712 0
714 715 -712 0
38 94 -717 0
-38 94 717 0
38 -94 717 0
-38 -94 -717 0
717 712 -690 0
-717 712 690 0
717 -712 690 0
-717 -712 -690 0
712 -718 0
717 -718 0
-712 -717 718 0
94 -719 0
38 -719 0
-94 -38 719 0
-718 716 0
-719 716 0
718 719 -716 0
39 95 -721 0
-39 95 721 0
39 -95 721 0
-39 -95 -721 0
721 716 -691 0
-721 716 691 0
721 -716 691 0
-721 -716 -691 0
716 -722 0
721 -722 0
-716 -721 722 0
95 -723 0
39 -723 0
-95 -39 723 0
-722 720 0
-723 720 0
722 723 -720 0
40 96 -724 0
-40 96 724 0
40 -96 724 0
-40 -96 -724 0
724 720 -692 0
-724 720 692 0
724 -720 692 0
-724 -720 -692 0
720 -725 0
724 -725 0
-720 -724 725 0
96 -726 0
40 -726 0
-96 -40 726 0
-725 711 0
-726 711 0
725 726 -711 0
713 -727 0
717 -727 0
721 -727 0
724 -727 0
-713 -717 -721 -724 727 0
726 -728 0
-726 728 0
41 97 -757 0
-41 97 757 0
41 -97 757 0
-41 -97 -757 0
757 170 -747 0
-757 170 747 0
757 -170 747 0
-757 -170 -747 0
170 -758 0
757 -758 0
-170 -757 758 0
97 -759 0
41 -759 0
-97 -41 759 0
-758 756 0
-759 756 0
758 759 -756 0
42 98 -761 0
-42 98 761 0
42 -98 761 0
-42 -98 -761 0
761 756 -748 0
-761 756 748 0
761 -756 748 0
-761 -756 -748 0
756 -762 0
761 -762 0
-756 -761 762 0
98 -763 0
42 -763 0
-98 -42 763 0
-762 760 0
-763 760 0
762 763 -760 0
43 99 -765 0
-43 99 765 0
43 -99 765 0
-43 -99 -765 0
765 760 -749 0
-765 760 749 0
765 -760 749 0
-765 -760 -749 0
760 -766 0
765 -766 0
-760 -765 766 0
99 -767 0
43 -767 0
-99 -43 767 0
-766 764 0
-767 764 0
766 767 -764 0
44 100 -768 0
-44 100 768 0
44 -100 768 0
-44 -100 -768 0
768 764 -750 0
-768 764 750 0
768 -764 750 0
-768 -764 -750 0
764 -769 0
768 -769 0
-764 -768 769 0
100 -770 0
44 -770 0
-100 -44 770 0
-769 755 0
-770 755 0
769 770 -755 0
757 -771 0
761 -771 0
765 -771 0
768 -771 0
-757 -761 -765 -768 771 0
770 -772 0
-770 772 0
41 97 -775 0
-41 97 775 0
41 -97 775 0
-41 -97 -775 0
775 188 -751 0
-775 188 751 0
775 -188 751 0
-775 -188 -751 0
188 -776 0
775 -776 0
-188 -775 776 0
97 -777 0
41 -777 0
-97 -41 777 0
-776 774 0
-777 774 0
776 777 -774 0
42 98 -779 0
-42 98 779 0
42 -98 779 0
-42 -98 -779 0
779 774 -752 0
-779 774 752 0
779 -774 752 0
-779 -774 -752 0
774 -780 0
779 -780 0
-774 -779 780 0
98 -781 0
42 -781 0
-98 -42 781 0
-780 778 0
-781 778 0
780 781 -778 0
43 99 -783 0
-43 99 783 0
43 -99 783 0
-43 -99 -783 0
783 778 -753 0
-783 778 753 0
783 -778 753 0
-783 -778 -753 0
778 -784 0
783 -784 0
-778 -783 784 0
99 -785 0
43 -785 0
-99 -43 785 0
-784 782 0
-785 782 0
784 785 -782 0
44 100 -786 0
-44 100 786 0
44 -100 786 0
-44 -100 -786 0
786 782 -754 0
-786 782 754 0
786 -782 754 0
-786 -782 -754 0
782 -787 0
786 -787 0
-782 -786 787 0
100 -788 0
44 -788 0
-100 -44 788 0
-787 773 0
-788 773 0
787 788 -773 0
775 -789 0
779 -789 0
783 -789 0
786 -789 0
-775 -779 -783 -786 789 0
788 -790 0
-788 790 0
45 101 -819 0
-45 101 819 0
45 -101 819 0
-45 -101 -819 0
819 170 -809 0
-819 170 809 0
819 -170 809 0
-819 -170 -809 0
170 -820 0
819 -820 0
-170 -819 820 0
101 -821 0
45 -821 0
-101 -45 821 0
-820 818 0
-821 818 0
820 821 -818 0
46 102 -823 0
-46 102 823 0
46 -102 823 0
-46 -102 -823 0
823 818 -810 0
-823 818 810 0
823 -818 810 0
-823 -818 -810 0
818 -824 0
823 -824 0
-818 -823 824 0
102 -825 0
46 -825 0
-102 -46 825 0
-824 822 0
-825 822 0
824 825 -822 0
47 103 -827 0
-47 103 827 0
47 -103 827 0
-47 -103 -827 0
827 822 -811 0
-827 822 811 0
827 -822 811 0
-827 -822 -811 0
822 -828 0
827 -828 0
-822 -827 828 0
103 -829 0
47 -829 0
-103 -47 829 0
-828 826 0
-829 826 0
828 829 -826 0
48 104 -830 0
-48 104 830 0
48 -104 830 0
-48 -104 -830 0
830 826 -812 0
-830 826 812 0
830 -826 812 0
-830 -826 -812 0
826 -831 0
830 -831 0
-826 -830 831 0
104 -832 0
48 -832 0
-104 -48 832 0
-831 817 0
-832 817 0
831 832 -817 0
819 -833 0
823 -833 0
827 -833 0
830 -833 0
-819 -823 -827 -830 833 0
832 -834 0
-832 834 0
45 101 -837 0
-45 101 837 0
45 -101 837 0
-45 -101 -837 0
837 188 -813 0
-837 188 813 0
837 -188 813 0
-837 -188 -813 0
188 -838 0
837 -838 0
-188 -837 838 0
101 -839 0
45 -839 0
-101 -45 839 0
-838 836 0
-839 836 0
838 839 -836 0
46 102 -841 0
-46 102 841 0
46 -102 841 0
-46 -102 -841 0
841 836 -814 0
-841 836 814 0
841 -836 814 0
-841 -836 -814 0
836 -842 0
841 -842 0
-836 -841 842 0
102 -843 0
46 -843 0
-102 -46 843 0
-842 840 0
-843 840 0
842 843 -840 0
47 103 -845 0
-47 103 845 0
47 -103 845 0
-47 -103 -845 0
845 840 -815 0
-845 840 815 0
845 -840 815 0
-845 -840 -815 0
840 -846 0
845 -846 0
-840 -845 846 0
103 -847 0
47 -847 0
-103 -47 847 0
-846 844 0
-847 844 0
846 847 -844 0
48 104 -848 0
-48 104 848 0
48 -104 848 0
-48 -104 -848 0
848 844 -816 0
-848 844 816 0
848 -844 816 0
-848 -844 -816 0
844 -849 0
848 -849 0
-844 -848 849 0
104 -850 0
48 -850 0
-104 -48 850 0
-849 835 0
-850 835 0
849 850 -835 0
837 -851 0
841 -851 0
845 -851 0
848 -851 0
-837 -841 -845 -848 851 0
850 -852 0
-850 852 0
49 105 -881 0
-49 105 881 0
49 -105 881 0
-49 -105 -881 0
881 170 -871 0
-881 170 871 0
881 -170 871 0
-881 -170 -871 0
170 -882 0
881 -882 0
-170 -881 882 0
105 -883 0
49 -883 0
-105 -49 883 0
-882 880 0
-883 880 0
882 883 -880 0
50 106 -885 0
-50 106 885 0
50 -106 885 0
-50 -106 -885 0
885 880 -872 0
-885 880 872 0
885 -880 872 0
-885 -880 -872 0
880 -886 0
885 -886 0
-880 -885 886 0
106 -887 0
50 -887 0
-106 -50 887 0
-886 884 0
-887 884 0
886 887 -884 0
51 107 -889 0
-51 107 889 0
51 -107 889 0
-51 -107 -889 0
889 884 -873 0
-889 884 873 0
889 -884 873 0
-889 -884 -873 0
884 -890 0
889 -890 0
-884 -889 890 0
107 -891 0
51 -891 0
-107 -51 891 0
-890 888 0
-891 888 0
890 891 -888 0
52 108 -892 0
-52 108 892 0
52 -108 892 0
-52 -108 -892 0
892 888 -874 0
-892 888 874 0
892 -888 874 0
-892 -888 -874 0
888 -893 0
892 -893 0
-888 -892 893 0
108 -894 0
52 -894 0
-108 -52 894 0
-893 879 0
-894 879 0
893 894 -879 0
881 -895 0
885 -895 0
889 -895 0
892 -895 0
-881 -885 -889 -892 895 0
894 -896 0
-894 896 0
49 105 -899 0
-49 105 899 0
49 -105 899 0
-49 -105 -899 0
899 188 -875 0
-899 188 875 0
899 -188 875 0
-899 -188 -875 0
188 -900 0
899 -900 0
-188 -899 900 0
105 -901 0
49 -901 0
-105 -49 901 0
-900 898 0
-901 898 0
900 901 -898 0
50 106 -903 0
-50 106 903 0
50 -106 903 0
-50 -106 -903 0
903 898 -876 0
-903 898 876 0
903 -898 876 0
-903 -898 -876 0
898 -904 0
903 -904 0
-898 -903 904 0
106 -905 0
50 -905 0
-106 -50 905 0
-904 902 0
-905 902 0
904 905 -902 0
51 107 -907 0
-51 107 907 0
51 -107 907 0
-51 -107 -907 0
907 902 -877 0
-907 902 877 0
907 -902 877 0
-907 -902 -877 0
902 -908 0
907 -908 0
-902 -907 908 0
107 -909 0
51 -909 0
-107 -51 909 0
-908 906 0
-909 906 0
908 909 -906 0
52 108 -910 0
-52 108 910 0
52 -108 910 0
-52 -108 -910 0
910 906 -878 0
-910 906 878 0
910 -906 878 0
-910 -906 -878 0
906 -911 0
910 -911 0
-906 -910 911 0
108 -912 0
52 -912 0
-108 -52 912 0
-911 897 0
-912 897 0
911 912 -897 0
899 -913 0
903 -913 0
907 -913 0
910 -913 0
-899 -903 -907 -910 913 0
912 -914 0
-912 914 0
53 109 -943 0
-53 109 943 0
53 -109 943 0
-53 -109 -943 0
943 170 -933 0
-943 170 933 0
943 -170 933 0
-943 -170 -933 0
170 -944 0
943 -944 0
-170 -943 944 0
109 -945 0
53 -945 0
-109 -53 945 0
-944 942 0
-945 942 0
944 945 -942 0
54 110 -947 0
-54 110 947 0
54 -110 947 0
-54 -110 -947 0
947 942 -934 0
-947 942 934 0
947 -942 934 0
-947 -942 -934 0
942 -948 0
947 -948 0
-942 -947 948 0
110 -949 0
54 -949 0
-110 -54 949 0
-948 946 0
-949 946 0
948 949 -946 0
55 111 -951 0
-55 111 951 0
55 -111 951 0
-55 -111 -951 0
951 946 -935 0
-951 946 935 0
951 -946 935 0
-951 -946 -935 0
946 -952 0
951 -952 0
-946 -951 952 0
111 -953 0
55 -953 0
-111 -55 953 0
-952 950 0
-953 950 0
952 953 -950 0
56 112 -954 0
-56 112 954 0
56 -112 954 0
-56 -112 -954 0
954 950 -936 0
-954 950 936 0
954 -950 936 0
-954 -950 -936 0
950 -955 0
954 -955 0
-950 -954 955 0
112 -956 0
56 -956 0
-112 -56 956 0
-955 941 0
-956 941 0
955 956 -941 0
943 -957 0
947 -957 0
951 -957 0
954 -957 0
-943 -947 -951 -954 957 0
956 -958 0
-956 958 0
53 109 -961 0
-53 109 961 0
53 -109 961 0
-53 -109 -961 0
961 188 -937 0
-961 188 937 0
961 -188 937 0
-961 -188 -937 0
188 -962 0
961 -962 0
-188 -961 962 0
109 -963 0
53 -963 0
-109 -53 963 0
-962 960 0
-963 960 0
962 963 -960 0
54 110 -965 0
-54 110 965 0
54 -110 965 0
-54 -110 -965 0
965 960 -938 0
-965 960 938 0
965 -960 938 0
-965 -960 -938 0
960 -966 0
965 -966 0
-960 -965 966 0
110 -967 0
54 -967 0
-110 -54 967 0
-966 964 0
-967 964 0
966 967 -964 0
55 111 -969 0
-55 111 969 0
55 -111 969 0
-55 -111 -969 0
969 964 -939 0
-969 964 939 0
969 -964 939 0
-969 -964 -939 0
964 -970 0
969 -970 0
-964 -969 970 0
111 -971 0
55 -971 0
-111 -55 971 0
-970 968 0
-971 968 0
970 971 -968 0
56 112 -972 0
-56 112 972 0
56 -112 972 0
-56 -112 -972 0
972 968 -940 0
-972 968 940 0
972 -968 940 0
-972 -968 -940 0
968 -973 0
972 -973 0
-968 -972 973 0
112 -974 0
56 -974 0
-112 -56 974 0
-973 959 0
-974 959 0
973 974 -959 0
961 -975 0
965 -975 0
969 -975 0
972 -975 0
-961 -965 -969 -972 975 0
974 -976 0
-974 976 0
172 234 0
-172 -234 0
234 -235 0
189 -235 0
-234 -189 235 0
172 -236 0
193 -236 0
-172 -193 236 0
-235 117 0
-236 117 0
235 236 -117 0
172 237 0
-172 -237 0
237 -238 0
190 -238 0
-237 -190 238 0
172 -239 0
194 -239 0
-172 -194 239 0
-238 118 0
-239 118 0
238 239 -118 0
172 240 0
-172 -240 0
240 -241 0
191 -241 0
-240 -191 241 0
172 -242 0
195 -242 0
-172 -195 242 0
-241 119 0
-242 119 0
241 242 -119 0
172 243 0
-172 -243 0
243 -244 0
192 -244 0
-243 -192 244 0
172 -245 0
196 -245 0
-172 -196 245 0
-244 120 0
-245 120 0
244 245 -120 0
172 246 0
-172 -246 0
246 -247 0
197 -247 0
-246 -197 247 0
172 -248 0
215 -248 0
-172 -215 248 0
-247 233 0
-248 233 0
247 248 -233 0
172 -249 0
231 -249 0
-172 -231 249 0
-249 250 0
-233 250 0
249 233 -250 0
250 296 0
-250 -296 0
296 -297 0
251 -297 0
-296 -251 297 0
250 -298 0
255 -298 0
-250 -255 298 0
-297 121 0
-298 121 0
297 298 -121 0
250 299 0
-250 -299 0
299 -300 0
252 -300 0
-299 -252 300 0
250 -301 0
256 -301 0
-250 -256 301 0
-300 122 0
-301 122 0
300 301 -122 0
250 302 0
-250 -302 0
302 -303 0
253 -303 0
-302 -253 303 0
250 -304 0
257 -304 0
-250 -257 304 0
-303 123 0
-304 123 0
303 304 -123 0
250 305 0
-250 -305 0
305 -306 0
254 -306 0
-305 -254 306 0
250 -307 0
258 -307 0
-250 -258 307 0
-306 124 0
-307 124 0
306 307 -124 0
250 308 0
-250 -308 0
308 -309 0
259 -309 0
-308 -259 309 0
250 -310 0
277 -310 0
-250 -277 310 0
-309 295 0
-310 295 0
309 310 -295 0
250 -311 0
293 -311 0
-250 -293 311 0
-311 312 0
-295 312 0
311 295 -312 0
312 358 0
-312 -358 0
358 -359 0
313 -359 0
-358 -313 359 0
312 -360 0
317 -360 0
-312 -317 360 0
-359 125 0
-360 125 0
359 360 -125 0
312 361 0
-312 -361 0
361 -362 0
314 -362 0
-361 -314 362 0
312 -363 0
318 -363 0
-312 -318 363 0
-362 126 0
-363 126 0
362 363 -126 0
312 364 0
-312 -364 0
364 -365 0
315 -365 0
-364 -315 365 0
312 -366 0
319 -366 0
-312 -319 366 0
-365 127 0
-366 127 0
365 366 -127 0
312 367 0
-312 -367 0
367 -368 0
316 -368 0
-367 -316 368 0
312 -369 0
320 -369 0
-312 -320 369 0
-368 128 0
-369 128 0
368 369 -128 0
312 370 0
-312 -370 0
370 -371 0
321 -371 0
-370 -321 371 0
312 -372 0
339 -372 0
-312 -339 372 0
-371 357 0
-372 357 0
371 372 -357 0
312 -373 0
355 -373 0
-312 -355 373 0
-373 374 0
-357 374 0
373 357 -374 0
374 420 0
-374 -420 0
420 -421 0
375 -421 0
-420 -375 421 0
374 -422 0
379 -422 0
-374 -379 422 0
-421 129 0
-422 129 0
421 422 -129 0
374 423 0
-374 -423 0
423 -424 0
376 -424 0
-423 -376 424 0
374 -425 0
380 -425 0
-374 -380 425 0
-424 130 0
-425 130 0
424 425 -130 0
374 426 0
-374 -426 0
426 -427 0
377 -427 0
-426 -377 427 0
374 -428 0
381 -428 0
-374 -381 428 0
-427 131 0
-428 131 0
427 428 -131 0
374 429 0
-374 -429 0
429 -430 0
378 -430 0
-429 -378 430 0
374 -431 0
382 -431 0
-374 -382 431 0
-430 132 0
-431 132 0
430 431 -132 0
374 432 0
-374 -432 0
432 -433 0
383 -433 0
-432 -383 433 0
374 -434 0
401 -434 0
-374 -401 434 0
-433 419 0
-434 419 0
433 434 -419 0
374 -435 0
417 -435 0
-374 -417 435 0
-435 436 0
-419 436 0
435 419 -436 0
436 482 0
-436 -482 0
482 -483 0
437 -483 0
-482 -437 483 0
436 -484 0
441 -484 0
-436 -441 484 0
-483 133 0
-484 133 0
483 484 -133 0
436 485 0
-436 -485 0
485 -486 0
438 -486 0
-485 -438 486 0
436 -487 0
442 -487 0
-436 -442 487 0
-486 134 0
-487 134 0
486 487 -134 0
436 488 0
-436 -488 0
488 -489 0
439 -489 0
-488 -439 489 0
436 -490 0
443 -490 0
-436 -443 490 0
-489 135 0
-490 135 0
489 490 -135 0
436 491 0
-436 -491 0
491 -492 0
440 -492 0
-491 -440 492 0
436 -493 0
444 -493 0
-436 -444 493 0
-492 136 0
-493 136 0
492 493 -136 0
436 494 0
-436 -494 0
494 -495 0
445 -495 0
-494 -445 495 0
436 -496 0
463 -496 0
-436 -463 496 0
-495 481 0
-496 481 0
495 496 -481 0
436 -497 0
479 -497 0
-436 -479 497 0
-497 498 0
-481 498 0
497 481 -498 0
498 544 0
-498 -544 0
544 -545 0
499 -545 0
-544 -499 545 0
498 -546 0
503 -546 0
-498 -503 546 0
-545 137 0
-546 137 0
545 546 -137 0
498 547 0
-498 -547 0
547 -548 0
500 -548 0
-547 -500 548 0
498 -549 0
504 -549 0
-498 -504 549 0
-548 138 0
-549 138 0
548 549 -138 0
498 550 0
-498 -550 0
550 -551 0
501 -551 0
-550 -501 551 0
498 -552 0
505 -552 0
-498 -505 552 0
-551 139 0
-552 139 0
551 552 -139 0
498 553 0
-498 -553 0
553 -554 0
502 -554 0
-553 -502 554 0
498 -555 0
506 -555 0
-498 -506 555 0
-554 140 0
-555 140 0
554 555 -140 0
498 556 0
-498 -556 0
556 -557 0
507 -557 0
-556 -507 557 0
498 -558 0
525 -558 0
-498 -525 558 0
-557 543 0
-558 543 0
557 558 -543 0
498 -559 0
541 -559 0
-498 -541 559 0
-559 560 0
-543 560 0
559 543 -560 0
560 606 0
-560 -606 0
606 -607 0
561 -607 0
-606 -561 607 0
560 -608 0
565 -608 0
-560 -565 608 0
-607 141 0
-608 141 0
607 608 -141 0
560 609 0
-560 -609 0
609 -610 0
562 -610 0
-609 -562 610 0
560 -611 0
566 -611 0
-560 -566 611 0
-610 142 0
-611 142 0
610 611 -142 0
560 612 0
-560 -612 0
612 -613 0
563 -613 0
-612 -563 613 0
560 -614 0
567 -614 0
-560 -567 614 0
-613 143 0
-614 143 0
613 614 -143 0
560 615 0
-560 -615 0
615 -616 0
564 -616 0
-615 -564 616 0
560 -617 0
568 -617 0
-560 -568 617 0
-616 144 0
-617 144 0
616 617 -144 0
560 618 0
-560 -618 0
618 -619 0
569 -619 0
-618 -569 619 0
560 -620 0
587 -620 0
-560 -587 620 0
-619 605 0
-620 605 0
619 620 -605 0
560 -621 0
603 -621 0
-560 -603 621 0
-621 622 0
-605 622 0
621 605 -622 0
622 668 0
-622 -668 0
668 -669 0
623 -669 0
-668 -623 669 0
622 -670 0
627 -670 0
-622 -627 670 0
-669 145 0
-670 145 0
669 670 -145 0
622 671 0
-622 -671 0
671 -672 0
624 -672 0
-671 -624 672 0
622 -673 0
628 -673 0
-622 -628 673 0
-672 146 0
-673 146 0
672 673 -146 0
622 674 0
-622 -674 0
674 -675 0
625 -675 0
-674 -625 675 0
622 -676 0
629 -676 0
-622 -629 676 0
-675 147 0
-676 147 0
675 676 -147 0
622 677 0
-622 -677 0
677 -678 0
626 -678 0
-677 -626 678 0
622 -679 0
630 -679 0
-622 -630 679 0
-678 148 0
-679 148 0
678 679 -148 0
622 680 0
-622 -680 0
680 -681 0
631 -681 0
-680 -631 681 0
622 -682 0
649 -682 0
-622 -649 682 0
-681 667 0
-682 667 0
681 682 -667 0
622 -683 0
665 -683 0
-622 -665 683 0
-683 684 0
-667 684 0
683 667 -684 0
684 730 0
-684 -730 0
730 -731 0
685 -731 0
-730 -685 731 0
684 -732 0
689 -732 0
-684 -689 732 0
-731 149 0
-732 149 0
731 732 -149 0
684 733 0
-684 -733 0
733 -734 0
686 -734 0
-733 -686 734 0
684 -735 0
690 -735 0
-684 -690 735 0
-734 150 0
-735 150 0
734 735 -150 0
684 736 0
-684 -736 0
736 -737 0
687 -737 0
-736 -687 737 0
684 -738 0
691 -738 0
-684 -691 738 0
-737 151 0
-738 151 0
737 738 -151 0
684 739 0
-684 -739 0
739 -740 0
688 -740 0
-739 -688 740 0
684 -741 0
692 -741 0
-684 -692 741 0
-740 152 0
-741 152 0
740 741 -152 0
684 742 0
-684 -742 0
742 -743 0
693 -743 0
-742 -693 743 0
684 -744 0
711 -744 0
-684 -711 744 0
-743 729 0
-744 729 0
743 744 -729 0
684 -745 0
727 -745 0
-684 -727 745 0
-745 746 0
-729 746 0
745 729 -746 0
746 792 0
-746 -792 0
792 -793 0
747 -793 0
-792 -747 793 0
746 -794 0
751 -794 0
-746 -751 794 0
-793 153 0
-794 153 0
793 794 -153 0
746 795 0
-746 -795 0
795 -796 0
748 -796 0
-795 -748 796 0
746 -797 0
752 -797 0
-746 -752 797 0
-796 154 0
-797 154 0
796 797 -154 0
746 798 0
-746 -798 0
798 -799 0
749 -799 0
-798 -749 799 0
746 -800 0
753 -800 0
-746 -753 800 0
-799 155 0
-800 155 0
799 800 -155 0
746 801 0
-746 -801 0
801 -802 0
750 -802 0
-801 -750 802 0
746 -803 0
754 -803 0
-746 -754 803 0
-802 156 0
-803 156 0
802 803 -156 0
746 804 0
-746 -804 0
804 -805 0
755 -805 0
-804 -755 805 0
746 -806 0
773 -806 0
-746 -773 806 0
-805 791 0
-806 791 0
805 806 -791 0
746 -807 0
789 -807 0
-746 -789 807 0
-807 808 0
-791 808 0
807 791 -808 0
808 854 0
-808 -854 0
854 -855 0
809 -855 0
-854 -809 855 0
808 -856 0
813 -856 0
-808 -813 856 0
-855 157 0
-856 157 0
855 856 -157 0
808 857 0
-808 -857 0
857 -858 0
810 -858 0
-857 -810 858 0
808 -859 0
814 -859 0
-808 -814 859 0
-858 158 0
-859 158 0
858 859 -158 0
808 860 0
-808 -860 0
860 -861 0
811 -861 0
-860 -811 861 0
808 -862 0
815 -862 0
-808 -815 862 0
-861 159 0
-862 159 0
861 862 -159 0
808 863 0
-808 -863 0
863 -864 0
812 -864 0
-863 -812 864 0
808 -865 0
816 -865 0
-808 -816 865 0
-864 160 0
-865 160 0
864 865 -160 0
808 866 0
-808 -866 0
866 -867 0
817 -867 0
-866 -817 867 0
808 -868 0
835 -868 0
-808 -835 868 0
-867 853 0
-868 853 0
867 868 -853 0
808 -869 0
851 -869 0
-808 -851 869 0
-869 870 0
-853 870 0
869 853 -870 0
870 916 0
-870 -916 0
916 -917 0
871 -917 0
-916 -871 917 0
870 -918 0
875 -918 0
-870 -875 918 0
-917 161 0
-918 161 0
917 918 -161 0
870 919 0
-870 -919 0
919 -920 0
872 -920 0
-919 -872 920 0
870 -921 0
876 -921 0
-870 -876 921 0
-920 162 0
-921 162 0
920 921 -162 0
870 922 0
-870 -922 0
922 -923 0
873 -923 0
-922 -873 923 0
870 -924 0
877 -924 0
-870 -877 924 0
-923 163 0
-924 163 0
923 924 -163 0
870 925 0
-870 -925 0
925 -926 0
874 -926 0
-925 -874 926 0
870 -927 0
878 -927 0
-870 -878 927 0
-926 164 0
-927 164 0
926 927 -164 0
870 928 0
-870 -928 0
928 -929 0
879 -929 0
-928 -879 929 0
870 -930 0
897 -930 0
-870 -897 930 0
-929 915 0
-930 915 0
929 930 -915 0
870 -931 0
913 -931 0
-870 -913 931 0
-931 932 0
-915 932 0
931 915 -932 0
932 978 0
-932 -978 0
978 -979 0
933 -979 0
-978 -933 979 0
932 -980 0
937 -980 0
-932 -937 980 0
-979 165 0
-980 165 0
979 980 -165 0
932 981 0
-932 -981 0
981 -982 0
934 -982 0
-981 -934 982 0
932 -983 0
938 -983 0
-932 -938 983 0
-982 166 0
-983 166 0
982 983 -166 0
932 984 0
-932 -984 0
984 -985 0
935 -985 0
-984 -935 985 0
932 -986 0
939 -986 0
-932 -939 986 0
-985 167 0
-986 167 0
985 986 -167 0
932 987 0
-932 -987 0
987 -988 0
936 -988 0
-987 -936 988 0
932 -989 0
940 -989 0
-932 -940 989 0
-988 168 0
-989 168 0
988 989 -168 0
932 990 0
-932 -990 0
990 -991 0
941 -991 0
-990 -941 991 0
932 -992 0
959 -992 0
-932 -959 992 0
-991 977 0
-992 977 0
991 992 -977 0
932 -993 0
975 -993 0
-932 -975 993 0
-993 994 0
-977 994 0
993 977 -994 0
994 -169 0
-994 169 0
